GeneratedTests/Random_11/Random_11_16.tsp
NAME: Random_11_16
TYPE: TSP
DIMENSION: 11
EDGE_WEIGHT_TYPE: EUC_2D
NODE_COORD_SECTION
1 1.1245446 2.9525247
2 17.923164 21.8825
3 19.362436 17.882452
4 30.291866 32.750523
5 19.976767 13.179972
6 16.51749 18.963459
7 27.661818 3.517467
8 30.976055 14.680071
9 17.49166 2.3339317
10 32.38888 21.05304
11 19.227283 17.197803
EOF
