GeneratedTests/Random_11/Random_11_16.txt
NAME: Random_11_16
TYPE: TSP
DIMENSION: 11
EDGE_WEIGHT_TYPE: EUC_2D
NODE_COORD_SECTION
1 20.306282 20.514444
2 10.452832 6.266729
3 6.011619 11.640139
4 29.664656 31.481756
5 18.5318 27.733349
6 10.732971 27.170975
7 22.689781 31.58038
8 28.648046 26.42361
9 2.0202637 10.959803
10 31.141665 30.973248
11 18.509508 28.068928
EOF
